(declare-datatypes ((Lst 0)) (((cons (param84 Int) (param85 Lst))(nil))))
(declare-datatypes ((Queue 0)) (((queue  (param86 Lst) (param87 Lst)))))
(declare-fun append (Lst Lst ) Lst)
(declare-fun len (Lst ) Int)
(assert (forall ((|_FH_2'| Lst)) (= (append nil |_FH_2'|) |_FH_2'|)))
(assert (forall ((x Int) (_FH_0 Lst) (_FH_2 Lst)) (= (append (cons x _FH_0) (cons x _FH_2)) (append _FH_0 _FH_2))))
(assert (= (len nil) 0))
(assert (forall ((x Int) (_FH_3 Lst)) (=> true (= (len (cons x _FH_3)) (+ (len _FH_3) 1)))))
(assert (not (forall ((x Int) (_FH_3 Lst)) (=> true (= (len (cons x _FH_3)) (+ (len _FH_3) 1))))))
(check-sat)